max:  -0.3 b_1_1 -0.9 b_1_2 -0.5 b_1_3 -0.2 b_2_1 -0.8 b_2_2 -0.4 b_2_3 -1.0 b_3_1 -0.1 b_3_2 -0.6 b_3_3 -0.7 b_4_1 -0.4 b_4_2 -0.6 b_4_3;

b_1_1 + b_1_2 + b_1_3 = 1;
b_2_1 + b_2_2 + b_2_3 = 1;
b_3_1 + b_3_2 + b_3_3 = 1;
b_4_1 + b_4_2 + b_4_3 = 1;
b_1_1 + b_2_1 + b_3_1 + b_4_1 - 4 p_1 <= 0;
b_1_2 + b_2_2 + b_3_2 + b_4_2 - 4 p_2 <= 0;
b_1_3 + b_2_3 + b_3_3 + b_4_3 - 4 p_3 <= 0;
p_1 + p_2 + p_3 <= 2;
-1 b_1_1 <= 0;
-1 b_1_2 <= 0;
-1 b_1_3 <= 0;
-1 b_2_1 <= 0;
-1 b_2_2 <= 0;
-1 b_2_3 <= 0;
-1 b_3_1 <= 0;
-1 b_3_2 <= 0;
-1 b_3_3 <= 0;
-1 b_4_1 <= 0;
-1 b_4_2 <= 0;
-1 b_4_3 <= 0;
b_1_1 <= p_1;
b_1_2 <= p_2;
b_1_3 <= p_3;
b_2_1 <= p_1;
b_2_2 <= p_2;
b_2_3 <= p_3;
b_3_1 <= p_1;
b_3_2 <= p_2;
b_3_3 <= p_3;
b_4_1 <= p_1;
b_4_2 <= p_2;
b_4_3 <= p_3;
p_1 <= 1;
p_2 <= 1;
p_3 <= 1;

int b_1_1, b_1_2, b_1_3, b_2_1, b_2_2, b_2_3, b_3_1, b_3_2, b_3_3, b_4_1, b_4_2, b_4_3, p_1, p_2, p_3;
